(set-info :smt-lib-version 2.6)
(set-logic ALIA)
(set-info :source |
Generated by the tool Ultimate Automizer [1,2] which implements
an automata theoretic approach [3] to software verification.

This SMT script belongs to a set of SMT scripts that was generated by
applying Ultimate Automizer to benchmarks [4] from the SV-COMP 2023 [5,6].
This script may not contain all SMT commands that Ultimate Automizer
issued. In order to meet the restrictions for SMT-COMP benchmarks 
we dropped the commands for getting values (resp. models), 
unsatisfiable cores, and interpolants.

2023-03-21, Matthias Heizmann (heizmann@informatik.uni-freiburg.de)

[1] https://ultimate.informatik.uni-freiburg.de/automizer/
[2] Matthias Heizmann, Max Barth, Daniel Dietsch, Leonard Fichtner,
     Jochen Hoenicke, Dominik Klumpp, Mehdi Naouar, Tanja Schindler,
     Frank Schüssele, Andreas Podelski: Ultimate Automizer and the
     CommuHash Normal Form (Competition Contribution). TACAS 2023
[3] Matthias Heizmann, Jochen Hoenicke, Andreas Podelski: Software Model
     Checking for People Who Love Automata. CAV 2013
[4] https://github.com/sosy-lab/sv-benchmarks
[5] Dirk Beyer: Competition on Software Verification and
     Witness Validation: SV-COMP 2023.  TACAS 2023
[6] https://sv-comp.sosy-lab.org/2023/
|)
(set-info :license "https://creativecommons.org/licenses/by/4.0/")
(set-info :category "industrial")
(set-info :status unknown)
(declare-fun ~unnamed0~0~P_ALL () Int)
(declare-fun ~unnamed0~0~P_PID () Int)
(declare-fun ~unnamed0~0~P_PGID () Int)
(assert (= ~unnamed0~0~P_ALL 0))
(assert (= ~unnamed0~0~P_PID 1))
(assert (= 2 ~unnamed0~0~P_PGID))
(declare-fun |#memory_$Pointer$.base| () (Array Int (Array Int Int)))
(declare-fun |ULTIMATE.start_main_~head~0#1.offset| () Int)
(declare-fun |#memory_$Pointer$.offset| () (Array Int (Array Int Int)))
(declare-fun |ULTIMATE.start_main_~head~0#1.base| () Int)
(declare-fun |#valid| () (Array Int Int))
(assert (forall ((|v_ULTIMATE.start_main_~x~0#1.offset_23| Int)) (or (forall ((v_ArrVal_459 Int)) (or (not (= (select |#valid| v_ArrVal_459) 0)) (forall ((v_ArrVal_458 (Array Int Int)) (|v_ULTIMATE.start_main_#t~malloc11#1.base_7| Int) (v_ArrVal_448 (Array Int Int)) (v_ArrVal_453 (Array Int Int))) (or (not (= (select (store |#valid| v_ArrVal_459 1) |v_ULTIMATE.start_main_#t~malloc11#1.base_7|) 0)) (forall ((v_ArrVal_471 (Array Int Int)) (v_ArrVal_467 (Array Int Int))) (let ((.cse2 (store |#memory_$Pointer$.base| |ULTIMATE.start_main_~head~0#1.base| (store (select |#memory_$Pointer$.base| |ULTIMATE.start_main_~head~0#1.base|) |v_ULTIMATE.start_main_~x~0#1.offset_23| v_ArrVal_459)))) (let ((.cse3 (select (select (store .cse2 v_ArrVal_459 v_ArrVal_448) |ULTIMATE.start_main_~head~0#1.base|) |v_ULTIMATE.start_main_~x~0#1.offset_23|))) (let ((.cse1 (store (store (store (store |#memory_$Pointer$.offset| |ULTIMATE.start_main_~head~0#1.base| (store (select |#memory_$Pointer$.offset| |ULTIMATE.start_main_~head~0#1.base|) |v_ULTIMATE.start_main_~x~0#1.offset_23| 0)) v_ArrVal_459 v_ArrVal_458) .cse3 v_ArrVal_471) |v_ULTIMATE.start_main_#t~malloc11#1.base_7| v_ArrVal_467)) (.cse4 (+ |ULTIMATE.start_main_~head~0#1.offset| 16))) (let ((.cse0 (select (select .cse1 |ULTIMATE.start_main_~head~0#1.base|) .cse4))) (or (= |ULTIMATE.start_main_~head~0#1.offset| .cse0) (forall ((v_ArrVal_468 (Array Int Int)) (v_ArrVal_466 (Array Int Int))) (= (select (select .cse1 (select (select (store (store (store .cse2 v_ArrVal_459 v_ArrVal_453) .cse3 v_ArrVal_466) |v_ULTIMATE.start_main_#t~malloc11#1.base_7| v_ArrVal_468) |ULTIMATE.start_main_~head~0#1.base|) .cse4)) .cse0) 0)))))))))))) (< |ULTIMATE.start_main_~head~0#1.offset| |v_ULTIMATE.start_main_~x~0#1.offset_23|))))
(assert (forall ((|v_ULTIMATE.start_main_~x~0#1.offset_23| Int)) (or (forall ((v_ArrVal_459 Int)) (or (forall ((v_ArrVal_458 (Array Int Int)) (|v_ULTIMATE.start_main_#t~malloc11#1.base_7| Int) (v_ArrVal_448 (Array Int Int)) (v_ArrVal_453 (Array Int Int))) (or (not (= (select (store |#valid| v_ArrVal_459 1) |v_ULTIMATE.start_main_#t~malloc11#1.base_7|) 0)) (forall ((v_ArrVal_471 (Array Int Int)) (v_ArrVal_467 (Array Int Int))) (let ((.cse2 (store |#memory_$Pointer$.base| |ULTIMATE.start_main_~head~0#1.base| (store (select |#memory_$Pointer$.base| |ULTIMATE.start_main_~head~0#1.base|) |v_ULTIMATE.start_main_~x~0#1.offset_23| v_ArrVal_459)))) (let ((.cse3 (select (select (store .cse2 v_ArrVal_459 v_ArrVal_448) |ULTIMATE.start_main_~head~0#1.base|) |v_ULTIMATE.start_main_~x~0#1.offset_23|)) (.cse1 (+ |ULTIMATE.start_main_~head~0#1.offset| 16))) (let ((.cse4 (select (select (store (store (store (store |#memory_$Pointer$.offset| |ULTIMATE.start_main_~head~0#1.base| (store (select |#memory_$Pointer$.offset| |ULTIMATE.start_main_~head~0#1.base|) |v_ULTIMATE.start_main_~x~0#1.offset_23| 0)) v_ArrVal_459 v_ArrVal_458) .cse3 v_ArrVal_471) |v_ULTIMATE.start_main_#t~malloc11#1.base_7| v_ArrVal_467) |ULTIMATE.start_main_~head~0#1.base|) .cse1))) (or (forall ((v_ArrVal_468 (Array Int Int)) (v_ArrVal_466 (Array Int Int))) (= (select (let ((.cse0 (store (store (store .cse2 v_ArrVal_459 v_ArrVal_453) .cse3 v_ArrVal_466) |v_ULTIMATE.start_main_#t~malloc11#1.base_7| v_ArrVal_468))) (select .cse0 (select (select .cse0 |ULTIMATE.start_main_~head~0#1.base|) .cse1))) .cse4) 0)) (= |ULTIMATE.start_main_~head~0#1.offset| .cse4)))))))) (not (= (select |#valid| v_ArrVal_459) 0)))) (< |ULTIMATE.start_main_~head~0#1.offset| |v_ULTIMATE.start_main_~x~0#1.offset_23|))))
(assert (forall ((|v_ULTIMATE.start_main_~x~0#1.offset_23| Int)) (or (forall ((v_ArrVal_459 Int)) (or (forall ((v_ArrVal_458 (Array Int Int)) (|v_ULTIMATE.start_main_#t~malloc11#1.base_7| Int) (v_ArrVal_448 (Array Int Int)) (v_ArrVal_453 (Array Int Int))) (or (not (= (select (store |#valid| v_ArrVal_459 1) |v_ULTIMATE.start_main_#t~malloc11#1.base_7|) 0)) (forall ((v_ArrVal_468 (Array Int Int)) (v_ArrVal_466 (Array Int Int))) (let ((.cse4 (store |#memory_$Pointer$.base| |ULTIMATE.start_main_~head~0#1.base| (store (select |#memory_$Pointer$.base| |ULTIMATE.start_main_~head~0#1.base|) |v_ULTIMATE.start_main_~x~0#1.offset_23| v_ArrVal_459)))) (let ((.cse3 (select (select (store .cse4 v_ArrVal_459 v_ArrVal_448) |ULTIMATE.start_main_~head~0#1.base|) |v_ULTIMATE.start_main_~x~0#1.offset_23|)) (.cse2 (+ |ULTIMATE.start_main_~head~0#1.offset| 16))) (let ((.cse0 (select (select (store (store (store .cse4 v_ArrVal_459 v_ArrVal_453) .cse3 v_ArrVal_466) |v_ULTIMATE.start_main_#t~malloc11#1.base_7| v_ArrVal_468) |ULTIMATE.start_main_~head~0#1.base|) .cse2))) (or (= .cse0 |ULTIMATE.start_main_~head~0#1.base|) (forall ((v_ArrVal_471 (Array Int Int)) (v_ArrVal_467 (Array Int Int))) (= (let ((.cse1 (store (store (store (store |#memory_$Pointer$.offset| |ULTIMATE.start_main_~head~0#1.base| (store (select |#memory_$Pointer$.offset| |ULTIMATE.start_main_~head~0#1.base|) |v_ULTIMATE.start_main_~x~0#1.offset_23| 0)) v_ArrVal_459 v_ArrVal_458) .cse3 v_ArrVal_471) |v_ULTIMATE.start_main_#t~malloc11#1.base_7| v_ArrVal_467))) (select (select .cse1 .cse0) (select (select .cse1 |ULTIMATE.start_main_~head~0#1.base|) .cse2))) 0))))))))) (not (= (select |#valid| v_ArrVal_459) 0)))) (< |ULTIMATE.start_main_~head~0#1.offset| |v_ULTIMATE.start_main_~x~0#1.offset_23|))))
(assert (not (forall ((|v_ULTIMATE.start_main_~x~0#1.offset_23| Int)) (or (forall ((v_ArrVal_459 Int)) (or (forall ((v_ArrVal_458 (Array Int Int)) (|v_ULTIMATE.start_main_#t~malloc11#1.base_7| Int) (v_ArrVal_448 (Array Int Int)) (v_ArrVal_453 (Array Int Int))) (or (not (= (select (store |#valid| v_ArrVal_459 1) |v_ULTIMATE.start_main_#t~malloc11#1.base_7|) 0)) (forall ((v_ArrVal_468 (Array Int Int)) (v_ArrVal_466 (Array Int Int))) (let ((.cse4 (store |#memory_$Pointer$.base| |ULTIMATE.start_main_~head~0#1.base| (store (select |#memory_$Pointer$.base| |ULTIMATE.start_main_~head~0#1.base|) |v_ULTIMATE.start_main_~x~0#1.offset_23| v_ArrVal_459)))) (let ((.cse2 (select (select (store .cse4 v_ArrVal_459 v_ArrVal_448) |ULTIMATE.start_main_~head~0#1.base|) |v_ULTIMATE.start_main_~x~0#1.offset_23|))) (let ((.cse0 (store (store (store .cse4 v_ArrVal_459 v_ArrVal_453) .cse2 v_ArrVal_466) |v_ULTIMATE.start_main_#t~malloc11#1.base_7| v_ArrVal_468)) (.cse3 (+ |ULTIMATE.start_main_~head~0#1.offset| 16))) (let ((.cse1 (select (select .cse0 |ULTIMATE.start_main_~head~0#1.base|) .cse3))) (or (forall ((v_ArrVal_471 (Array Int Int)) (v_ArrVal_467 (Array Int Int))) (= (select (select .cse0 .cse1) (select (select (store (store (store (store |#memory_$Pointer$.offset| |ULTIMATE.start_main_~head~0#1.base| (store (select |#memory_$Pointer$.offset| |ULTIMATE.start_main_~head~0#1.base|) |v_ULTIMATE.start_main_~x~0#1.offset_23| 0)) v_ArrVal_459 v_ArrVal_458) .cse2 v_ArrVal_471) |v_ULTIMATE.start_main_#t~malloc11#1.base_7| v_ArrVal_467) |ULTIMATE.start_main_~head~0#1.base|) .cse3)) 0)) (= .cse1 |ULTIMATE.start_main_~head~0#1.base|))))))))) (not (= (select |#valid| v_ArrVal_459) 0)))) (< |ULTIMATE.start_main_~head~0#1.offset| |v_ULTIMATE.start_main_~x~0#1.offset_23|)))))
(check-sat)
(exit)
